20	38
0	2	12
0	6	9
0	8	5
0	14	84
1	7	93
1	9	76
1	17	22
1	18	15
1	19	21
2	9	90
2	15	89
2	16	59
2	17	5
2	18	4
3	10	79
3	13	3
3	14	62
4	5	39
4	12	6
5	7	61
5	10	6
5	12	59
5	14	82
5	18	50
6	9	71
6	17	72
6	19	73
7	15	95
7	16	92
8	12	97
9	11	62
9	12	18
11	16	6
11	18	58
12	16	55
12	19	65
13	18	39
16	18	78
